c description: Random 2-CNF over 15 variables and 30 clauses
c generator: CNFgen (0.9.0)
c copyright: (C) 2012-2020 Massimo Lauria <massimo.lauria@uniroma1.it>
c url: https://massimolauria.net/cnfgen
c
p cnf 15 30
2 8 0
4 -5 0
-5 10 0
-4 11 0
2 14 0
4 13 0
-2 14 0
3 -14 0
5 -9 0
-3 -6 0
7 -8 0
9 13 0
-8 14 0
3 10 0
-12 13 0
-13 -14 0
-1 7 0
-2 6 0
4 -10 0
-6 9 0
-2 7 0
-3 5 0
-7 8 0
-5 -6 0
5 14 0
-12 -14 0
-2 -3 0
11 13 0
12 14 0
5 -7 0